(declare-fun bvlambda_1_ () (_ BitVec 1))
(declare-fun a77 () (Array (_ BitVec 1) (_ BitVec 2)))
(assert
(let (($e1 (_ bv0 1)))
(let (($e22 (_ bv2 2)))
(let (($e120         bvlambda_1_             ))
(let (($e121         $e120             ))
(let (($e122         $e121             ))
(let (($e123         $e122             ))
(let (($e124         $e123             ))
(let (($e125         $e124             ))
(let (($e126         $e125             ))
(let (($e128                                $e126 ))
(let (($e129              $e128 ))
(let (($e130                    (bvnot $e129) ))
(let (($e131                          $e130      ))
(let (($e136 (                     bvnot $e131 )))
(let (($e199                                     #b0 ))
(let (($e246 (store a77 (bvnot $e1)        $e22 )))
(let (($e394 (concat (bvnot $e199) (bvnot $e199))))
(let (($e395                  $e136 ))
(let (($e396 (select $e246 (bvnot $e395))))
(let (($e397      (bvult $e396 $e394)         ))
(let (($e398                      $e397 ))
                    (bvnot $e398)
                                                                                                                                                                                                                                                                                                                                                                              )))))                                                                                                                                                   )                                              )                                                              )    )))) )))))))                                                                       )                    ))
